c created by edge2cnf
p cnf 500 3100
-1 -2 0
-1 -3 0
-1 -4 0
-1 -5 0
-2 -3 0
-2 -4 0
-2 -5 0
-3 -4 0
-3 -5 0
-4 -5 0
1 2 3 4 5 0
-6 -7 0
-6 -8 0
-6 -9 0
-6 -10 0
-7 -8 0
-7 -9 0
-7 -10 0
-8 -9 0
-8 -10 0
-9 -10 0
6 7 8 9 10 0
-11 -12 0
-11 -13 0
-11 -14 0
-11 -15 0
-12 -13 0
-12 -14 0
-12 -15 0
-13 -14 0
-13 -15 0
-14 -15 0
11 12 13 14 15 0
-16 -17 0
-16 -18 0
-16 -19 0
-16 -20 0
-17 -18 0
-17 -19 0
-17 -20 0
-18 -19 0
-18 -20 0
-19 -20 0
16 17 18 19 20 0
-21 -22 0
-21 -23 0
-21 -24 0
-21 -25 0
-22 -23 0
-22 -24 0
-22 -25 0
-23 -24 0
-23 -25 0
-24 -25 0
21 22 23 24 25 0
-26 -27 0
-26 -28 0
-26 -29 0
-26 -30 0
-27 -28 0
-27 -29 0
-27 -30 0
-28 -29 0
-28 -30 0
-29 -30 0
26 27 28 29 30 0
-31 -32 0
-31 -33 0
-31 -34 0
-31 -35 0
-32 -33 0
-32 -34 0
-32 -35 0
-33 -34 0
-33 -35 0
-34 -35 0
31 32 33 34 35 0
-36 -37 0
-36 -38 0
-36 -39 0
-36 -40 0
-37 -38 0
-37 -39 0
-37 -40 0
-38 -39 0
-38 -40 0
-39 -40 0
36 37 38 39 40 0
-41 -42 0
-41 -43 0
-41 -44 0
-41 -45 0
-42 -43 0
-42 -44 0
-42 -45 0
-43 -44 0
-43 -45 0
-44 -45 0
41 42 43 44 45 0
-46 -47 0
-46 -48 0
-46 -49 0
-46 -50 0
-47 -48 0
-47 -49 0
-47 -50 0
-48 -49 0
-48 -50 0
-49 -50 0
46 47 48 49 50 0
-51 -52 0
-51 -53 0
-51 -54 0
-51 -55 0
-52 -53 0
-52 -54 0
-52 -55 0
-53 -54 0
-53 -55 0
-54 -55 0
51 52 53 54 55 0
-56 -57 0
-56 -58 0
-56 -59 0
-56 -60 0
-57 -58 0
-57 -59 0
-57 -60 0
-58 -59 0
-58 -60 0
-59 -60 0
56 57 58 59 60 0
-61 -62 0
-61 -63 0
-61 -64 0
-61 -65 0
-62 -63 0
-62 -64 0
-62 -65 0
-63 -64 0
-63 -65 0
-64 -65 0
61 62 63 64 65 0
-66 -67 0
-66 -68 0
-66 -69 0
-66 -70 0
-67 -68 0
-67 -69 0
-67 -70 0
-68 -69 0
-68 -70 0
-69 -70 0
66 67 68 69 70 0
-71 -72 0
-71 -73 0
-71 -74 0
-71 -75 0
-72 -73 0
-72 -74 0
-72 -75 0
-73 -74 0
-73 -75 0
-74 -75 0
71 72 73 74 75 0
-76 -77 0
-76 -78 0
-76 -79 0
-76 -80 0
-77 -78 0
-77 -79 0
-77 -80 0
-78 -79 0
-78 -80 0
-79 -80 0
76 77 78 79 80 0
-81 -82 0
-81 -83 0
-81 -84 0
-81 -85 0
-82 -83 0
-82 -84 0
-82 -85 0
-83 -84 0
-83 -85 0
-84 -85 0
81 82 83 84 85 0
-86 -87 0
-86 -88 0
-86 -89 0
-86 -90 0
-87 -88 0
-87 -89 0
-87 -90 0
-88 -89 0
-88 -90 0
-89 -90 0
86 87 88 89 90 0
-91 -92 0
-91 -93 0
-91 -94 0
-91 -95 0
-92 -93 0
-92 -94 0
-92 -95 0
-93 -94 0
-93 -95 0
-94 -95 0
91 92 93 94 95 0
-96 -97 0
-96 -98 0
-96 -99 0
-96 -100 0
-97 -98 0
-97 -99 0
-97 -100 0
-98 -99 0
-98 -100 0
-99 -100 0
96 97 98 99 100 0
-101 -102 0
-101 -103 0
-101 -104 0
-101 -105 0
-102 -103 0
-102 -104 0
-102 -105 0
-103 -104 0
-103 -105 0
-104 -105 0
101 102 103 104 105 0
-106 -107 0
-106 -108 0
-106 -109 0
-106 -110 0
-107 -108 0
-107 -109 0
-107 -110 0
-108 -109 0
-108 -110 0
-109 -110 0
106 107 108 109 110 0
-111 -112 0
-111 -113 0
-111 -114 0
-111 -115 0
-112 -113 0
-112 -114 0
-112 -115 0
-113 -114 0
-113 -115 0
-114 -115 0
111 112 113 114 115 0
-116 -117 0
-116 -118 0
-116 -119 0
-116 -120 0
-117 -118 0
-117 -119 0
-117 -120 0
-118 -119 0
-118 -120 0
-119 -120 0
116 117 118 119 120 0
-121 -122 0
-121 -123 0
-121 -124 0
-121 -125 0
-122 -123 0
-122 -124 0
-122 -125 0
-123 -124 0
-123 -125 0
-124 -125 0
121 122 123 124 125 0
-126 -127 0
-126 -128 0
-126 -129 0
-126 -130 0
-127 -128 0
-127 -129 0
-127 -130 0
-128 -129 0
-128 -130 0
-129 -130 0
126 127 128 129 130 0
-131 -132 0
-131 -133 0
-131 -134 0
-131 -135 0
-132 -133 0
-132 -134 0
-132 -135 0
-133 -134 0
-133 -135 0
-134 -135 0
131 132 133 134 135 0
-136 -137 0
-136 -138 0
-136 -139 0
-136 -140 0
-137 -138 0
-137 -139 0
-137 -140 0
-138 -139 0
-138 -140 0
-139 -140 0
136 137 138 139 140 0
-141 -142 0
-141 -143 0
-141 -144 0
-141 -145 0
-142 -143 0
-142 -144 0
-142 -145 0
-143 -144 0
-143 -145 0
-144 -145 0
141 142 143 144 145 0
-146 -147 0
-146 -148 0
-146 -149 0
-146 -150 0
-147 -148 0
-147 -149 0
-147 -150 0
-148 -149 0
-148 -150 0
-149 -150 0
146 147 148 149 150 0
-151 -152 0
-151 -153 0
-151 -154 0
-151 -155 0
-152 -153 0
-152 -154 0
-152 -155 0
-153 -154 0
-153 -155 0
-154 -155 0
151 152 153 154 155 0
-156 -157 0
-156 -158 0
-156 -159 0
-156 -160 0
-157 -158 0
-157 -159 0
-157 -160 0
-158 -159 0
-158 -160 0
-159 -160 0
156 157 158 159 160 0
-161 -162 0
-161 -163 0
-161 -164 0
-161 -165 0
-162 -163 0
-162 -164 0
-162 -165 0
-163 -164 0
-163 -165 0
-164 -165 0
161 162 163 164 165 0
-166 -167 0
-166 -168 0
-166 -169 0
-166 -170 0
-167 -168 0
-167 -169 0
-167 -170 0
-168 -169 0
-168 -170 0
-169 -170 0
166 167 168 169 170 0
-171 -172 0
-171 -173 0
-171 -174 0
-171 -175 0
-172 -173 0
-172 -174 0
-172 -175 0
-173 -174 0
-173 -175 0
-174 -175 0
171 172 173 174 175 0
-176 -177 0
-176 -178 0
-176 -179 0
-176 -180 0
-177 -178 0
-177 -179 0
-177 -180 0
-178 -179 0
-178 -180 0
-179 -180 0
176 177 178 179 180 0
-181 -182 0
-181 -183 0
-181 -184 0
-181 -185 0
-182 -183 0
-182 -184 0
-182 -185 0
-183 -184 0
-183 -185 0
-184 -185 0
181 182 183 184 185 0
-186 -187 0
-186 -188 0
-186 -189 0
-186 -190 0
-187 -188 0
-187 -189 0
-187 -190 0
-188 -189 0
-188 -190 0
-189 -190 0
186 187 188 189 190 0
-191 -192 0
-191 -193 0
-191 -194 0
-191 -195 0
-192 -193 0
-192 -194 0
-192 -195 0
-193 -194 0
-193 -195 0
-194 -195 0
191 192 193 194 195 0
-196 -197 0
-196 -198 0
-196 -199 0
-196 -200 0
-197 -198 0
-197 -199 0
-197 -200 0
-198 -199 0
-198 -200 0
-199 -200 0
196 197 198 199 200 0
-201 -202 0
-201 -203 0
-201 -204 0
-201 -205 0
-202 -203 0
-202 -204 0
-202 -205 0
-203 -204 0
-203 -205 0
-204 -205 0
201 202 203 204 205 0
-206 -207 0
-206 -208 0
-206 -209 0
-206 -210 0
-207 -208 0
-207 -209 0
-207 -210 0
-208 -209 0
-208 -210 0
-209 -210 0
206 207 208 209 210 0
-211 -212 0
-211 -213 0
-211 -214 0
-211 -215 0
-212 -213 0
-212 -214 0
-212 -215 0
-213 -214 0
-213 -215 0
-214 -215 0
211 212 213 214 215 0
-216 -217 0
-216 -218 0
-216 -219 0
-216 -220 0
-217 -218 0
-217 -219 0
-217 -220 0
-218 -219 0
-218 -220 0
-219 -220 0
216 217 218 219 220 0
-221 -222 0
-221 -223 0
-221 -224 0
-221 -225 0
-222 -223 0
-222 -224 0
-222 -225 0
-223 -224 0
-223 -225 0
-224 -225 0
221 222 223 224 225 0
-226 -227 0
-226 -228 0
-226 -229 0
-226 -230 0
-227 -228 0
-227 -229 0
-227 -230 0
-228 -229 0
-228 -230 0
-229 -230 0
226 227 228 229 230 0
-231 -232 0
-231 -233 0
-231 -234 0
-231 -235 0
-232 -233 0
-232 -234 0
-232 -235 0
-233 -234 0
-233 -235 0
-234 -235 0
231 232 233 234 235 0
-236 -237 0
-236 -238 0
-236 -239 0
-236 -240 0
-237 -238 0
-237 -239 0
-237 -240 0
-238 -239 0
-238 -240 0
-239 -240 0
236 237 238 239 240 0
-241 -242 0
-241 -243 0
-241 -244 0
-241 -245 0
-242 -243 0
-242 -244 0
-242 -245 0
-243 -244 0
-243 -245 0
-244 -245 0
241 242 243 244 245 0
-246 -247 0
-246 -248 0
-246 -249 0
-246 -250 0
-247 -248 0
-247 -249 0
-247 -250 0
-248 -249 0
-248 -250 0
-249 -250 0
246 247 248 249 250 0
-251 -252 0
-251 -253 0
-251 -254 0
-251 -255 0
-252 -253 0
-252 -254 0
-252 -255 0
-253 -254 0
-253 -255 0
-254 -255 0
251 252 253 254 255 0
-256 -257 0
-256 -258 0
-256 -259 0
-256 -260 0
-257 -258 0
-257 -259 0
-257 -260 0
-258 -259 0
-258 -260 0
-259 -260 0
256 257 258 259 260 0
-261 -262 0
-261 -263 0
-261 -264 0
-261 -265 0
-262 -263 0
-262 -264 0
-262 -265 0
-263 -264 0
-263 -265 0
-264 -265 0
261 262 263 264 265 0
-266 -267 0
-266 -268 0
-266 -269 0
-266 -270 0
-267 -268 0
-267 -269 0
-267 -270 0
-268 -269 0
-268 -270 0
-269 -270 0
266 267 268 269 270 0
-271 -272 0
-271 -273 0
-271 -274 0
-271 -275 0
-272 -273 0
-272 -274 0
-272 -275 0
-273 -274 0
-273 -275 0
-274 -275 0
271 272 273 274 275 0
-276 -277 0
-276 -278 0
-276 -279 0
-276 -280 0
-277 -278 0
-277 -279 0
-277 -280 0
-278 -279 0
-278 -280 0
-279 -280 0
276 277 278 279 280 0
-281 -282 0
-281 -283 0
-281 -284 0
-281 -285 0
-282 -283 0
-282 -284 0
-282 -285 0
-283 -284 0
-283 -285 0
-284 -285 0
281 282 283 284 285 0
-286 -287 0
-286 -288 0
-286 -289 0
-286 -290 0
-287 -288 0
-287 -289 0
-287 -290 0
-288 -289 0
-288 -290 0
-289 -290 0
286 287 288 289 290 0
-291 -292 0
-291 -293 0
-291 -294 0
-291 -295 0
-292 -293 0
-292 -294 0
-292 -295 0
-293 -294 0
-293 -295 0
-294 -295 0
291 292 293 294 295 0
-296 -297 0
-296 -298 0
-296 -299 0
-296 -300 0
-297 -298 0
-297 -299 0
-297 -300 0
-298 -299 0
-298 -300 0
-299 -300 0
296 297 298 299 300 0
-301 -302 0
-301 -303 0
-301 -304 0
-301 -305 0
-302 -303 0
-302 -304 0
-302 -305 0
-303 -304 0
-303 -305 0
-304 -305 0
301 302 303 304 305 0
-306 -307 0
-306 -308 0
-306 -309 0
-306 -310 0
-307 -308 0
-307 -309 0
-307 -310 0
-308 -309 0
-308 -310 0
-309 -310 0
306 307 308 309 310 0
-311 -312 0
-311 -313 0
-311 -314 0
-311 -315 0
-312 -313 0
-312 -314 0
-312 -315 0
-313 -314 0
-313 -315 0
-314 -315 0
311 312 313 314 315 0
-316 -317 0
-316 -318 0
-316 -319 0
-316 -320 0
-317 -318 0
-317 -319 0
-317 -320 0
-318 -319 0
-318 -320 0
-319 -320 0
316 317 318 319 320 0
-321 -322 0
-321 -323 0
-321 -324 0
-321 -325 0
-322 -323 0
-322 -324 0
-322 -325 0
-323 -324 0
-323 -325 0
-324 -325 0
321 322 323 324 325 0
-326 -327 0
-326 -328 0
-326 -329 0
-326 -330 0
-327 -328 0
-327 -329 0
-327 -330 0
-328 -329 0
-328 -330 0
-329 -330 0
326 327 328 329 330 0
-331 -332 0
-331 -333 0
-331 -334 0
-331 -335 0
-332 -333 0
-332 -334 0
-332 -335 0
-333 -334 0
-333 -335 0
-334 -335 0
331 332 333 334 335 0
-336 -337 0
-336 -338 0
-336 -339 0
-336 -340 0
-337 -338 0
-337 -339 0
-337 -340 0
-338 -339 0
-338 -340 0
-339 -340 0
336 337 338 339 340 0
-341 -342 0
-341 -343 0
-341 -344 0
-341 -345 0
-342 -343 0
-342 -344 0
-342 -345 0
-343 -344 0
-343 -345 0
-344 -345 0
341 342 343 344 345 0
-346 -347 0
-346 -348 0
-346 -349 0
-346 -350 0
-347 -348 0
-347 -349 0
-347 -350 0
-348 -349 0
-348 -350 0
-349 -350 0
346 347 348 349 350 0
-351 -352 0
-351 -353 0
-351 -354 0
-351 -355 0
-352 -353 0
-352 -354 0
-352 -355 0
-353 -354 0
-353 -355 0
-354 -355 0
351 352 353 354 355 0
-356 -357 0
-356 -358 0
-356 -359 0
-356 -360 0
-357 -358 0
-357 -359 0
-357 -360 0
-358 -359 0
-358 -360 0
-359 -360 0
356 357 358 359 360 0
-361 -362 0
-361 -363 0
-361 -364 0
-361 -365 0
-362 -363 0
-362 -364 0
-362 -365 0
-363 -364 0
-363 -365 0
-364 -365 0
361 362 363 364 365 0
-366 -367 0
-366 -368 0
-366 -369 0
-366 -370 0
-367 -368 0
-367 -369 0
-367 -370 0
-368 -369 0
-368 -370 0
-369 -370 0
366 367 368 369 370 0
-371 -372 0
-371 -373 0
-371 -374 0
-371 -375 0
-372 -373 0
-372 -374 0
-372 -375 0
-373 -374 0
-373 -375 0
-374 -375 0
371 372 373 374 375 0
-376 -377 0
-376 -378 0
-376 -379 0
-376 -380 0
-377 -378 0
-377 -379 0
-377 -380 0
-378 -379 0
-378 -380 0
-379 -380 0
376 377 378 379 380 0
-381 -382 0
-381 -383 0
-381 -384 0
-381 -385 0
-382 -383 0
-382 -384 0
-382 -385 0
-383 -384 0
-383 -385 0
-384 -385 0
381 382 383 384 385 0
-386 -387 0
-386 -388 0
-386 -389 0
-386 -390 0
-387 -388 0
-387 -389 0
-387 -390 0
-388 -389 0
-388 -390 0
-389 -390 0
386 387 388 389 390 0
-391 -392 0
-391 -393 0
-391 -394 0
-391 -395 0
-392 -393 0
-392 -394 0
-392 -395 0
-393 -394 0
-393 -395 0
-394 -395 0
391 392 393 394 395 0
-396 -397 0
-396 -398 0
-396 -399 0
-396 -400 0
-397 -398 0
-397 -399 0
-397 -400 0
-398 -399 0
-398 -400 0
-399 -400 0
396 397 398 399 400 0
-401 -402 0
-401 -403 0
-401 -404 0
-401 -405 0
-402 -403 0
-402 -404 0
-402 -405 0
-403 -404 0
-403 -405 0
-404 -405 0
401 402 403 404 405 0
-406 -407 0
-406 -408 0
-406 -409 0
-406 -410 0
-407 -408 0
-407 -409 0
-407 -410 0
-408 -409 0
-408 -410 0
-409 -410 0
406 407 408 409 410 0
-411 -412 0
-411 -413 0
-411 -414 0
-411 -415 0
-412 -413 0
-412 -414 0
-412 -415 0
-413 -414 0
-413 -415 0
-414 -415 0
411 412 413 414 415 0
-416 -417 0
-416 -418 0
-416 -419 0
-416 -420 0
-417 -418 0
-417 -419 0
-417 -420 0
-418 -419 0
-418 -420 0
-419 -420 0
416 417 418 419 420 0
-421 -422 0
-421 -423 0
-421 -424 0
-421 -425 0
-422 -423 0
-422 -424 0
-422 -425 0
-423 -424 0
-423 -425 0
-424 -425 0
421 422 423 424 425 0
-426 -427 0
-426 -428 0
-426 -429 0
-426 -430 0
-427 -428 0
-427 -429 0
-427 -430 0
-428 -429 0
-428 -430 0
-429 -430 0
426 427 428 429 430 0
-431 -432 0
-431 -433 0
-431 -434 0
-431 -435 0
-432 -433 0
-432 -434 0
-432 -435 0
-433 -434 0
-433 -435 0
-434 -435 0
431 432 433 434 435 0
-436 -437 0
-436 -438 0
-436 -439 0
-436 -440 0
-437 -438 0
-437 -439 0
-437 -440 0
-438 -439 0
-438 -440 0
-439 -440 0
436 437 438 439 440 0
-441 -442 0
-441 -443 0
-441 -444 0
-441 -445 0
-442 -443 0
-442 -444 0
-442 -445 0
-443 -444 0
-443 -445 0
-444 -445 0
441 442 443 444 445 0
-446 -447 0
-446 -448 0
-446 -449 0
-446 -450 0
-447 -448 0
-447 -449 0
-447 -450 0
-448 -449 0
-448 -450 0
-449 -450 0
446 447 448 449 450 0
-451 -452 0
-451 -453 0
-451 -454 0
-451 -455 0
-452 -453 0
-452 -454 0
-452 -455 0
-453 -454 0
-453 -455 0
-454 -455 0
451 452 453 454 455 0
-456 -457 0
-456 -458 0
-456 -459 0
-456 -460 0
-457 -458 0
-457 -459 0
-457 -460 0
-458 -459 0
-458 -460 0
-459 -460 0
456 457 458 459 460 0
-461 -462 0
-461 -463 0
-461 -464 0
-461 -465 0
-462 -463 0
-462 -464 0
-462 -465 0
-463 -464 0
-463 -465 0
-464 -465 0
461 462 463 464 465 0
-466 -467 0
-466 -468 0
-466 -469 0
-466 -470 0
-467 -468 0
-467 -469 0
-467 -470 0
-468 -469 0
-468 -470 0
-469 -470 0
466 467 468 469 470 0
-471 -472 0
-471 -473 0
-471 -474 0
-471 -475 0
-472 -473 0
-472 -474 0
-472 -475 0
-473 -474 0
-473 -475 0
-474 -475 0
471 472 473 474 475 0
-476 -477 0
-476 -478 0
-476 -479 0
-476 -480 0
-477 -478 0
-477 -479 0
-477 -480 0
-478 -479 0
-478 -480 0
-479 -480 0
476 477 478 479 480 0
-481 -482 0
-481 -483 0
-481 -484 0
-481 -485 0
-482 -483 0
-482 -484 0
-482 -485 0
-483 -484 0
-483 -485 0
-484 -485 0
481 482 483 484 485 0
-486 -487 0
-486 -488 0
-486 -489 0
-486 -490 0
-487 -488 0
-487 -489 0
-487 -490 0
-488 -489 0
-488 -490 0
-489 -490 0
486 487 488 489 490 0
-491 -492 0
-491 -493 0
-491 -494 0
-491 -495 0
-492 -493 0
-492 -494 0
-492 -495 0
-493 -494 0
-493 -495 0
-494 -495 0
491 492 493 494 495 0
-496 -497 0
-496 -498 0
-496 -499 0
-496 -500 0
-497 -498 0
-497 -499 0
-497 -500 0
-498 -499 0
-498 -500 0
-499 -500 0
496 497 498 499 500 0
-61 -66 0
-62 -67 0
-63 -68 0
-64 -69 0
-65 -70 0
-71 -86 0
-72 -87 0
-73 -88 0
-74 -89 0
-75 -90 0
-91 -101 0
-92 -102 0
-93 -103 0
-94 -104 0
-95 -105 0
-96 -116 0
-97 -117 0
-98 -118 0
-99 -119 0
-100 -120 0
-101 -111 0
-102 -112 0
-103 -113 0
-104 -114 0
-105 -115 0
-101 -121 0
-102 -122 0
-103 -123 0
-104 -124 0
-105 -125 0
-106 -126 0
-107 -127 0
-108 -128 0
-109 -129 0
-110 -130 0
-121 -131 0
-122 -132 0
-123 -133 0
-124 -134 0
-125 -135 0
-121 -136 0
-122 -137 0
-123 -138 0
-124 -139 0
-125 -140 0
-151 -156 0
-152 -157 0
-153 -158 0
-154 -159 0
-155 -160 0
-181 -191 0
-182 -192 0
-183 -193 0
-184 -194 0
-185 -195 0
-186 -196 0
-187 -197 0
-188 -198 0
-189 -199 0
-190 -200 0
-191 -211 0
-192 -212 0
-193 -213 0
-194 -214 0
-195 -215 0
-226 -241 0
-227 -242 0
-228 -243 0
-229 -244 0
-230 -245 0
-236 -246 0
-237 -247 0
-238 -248 0
-239 -249 0
-240 -250 0
-236 -251 0
-237 -252 0
-238 -253 0
-239 -254 0
-240 -255 0
-246 -261 0
-247 -262 0
-248 -263 0
-249 -264 0
-250 -265 0
-276 -291 0
-277 -292 0
-278 -293 0
-279 -294 0
-280 -295 0
-291 -296 0
-292 -297 0
-293 -298 0
-294 -299 0
-295 -300 0
-336 -341 0
-337 -342 0
-338 -343 0
-339 -344 0
-340 -345 0
-341 -356 0
-342 -357 0
-343 -358 0
-344 -359 0
-345 -360 0
-346 -361 0
-347 -362 0
-348 -363 0
-349 -364 0
-350 -365 0
-371 -386 0
-372 -387 0
-373 -388 0
-374 -389 0
-375 -390 0
-406 -416 0
-407 -417 0
-408 -418 0
-409 -419 0
-410 -420 0
-411 -426 0
-412 -427 0
-413 -428 0
-414 -429 0
-415 -430 0
-431 -441 0
-432 -442 0
-433 -443 0
-434 -444 0
-435 -445 0
-436 -456 0
-437 -457 0
-438 -458 0
-439 -459 0
-440 -460 0
-451 -471 0
-452 -472 0
-453 -473 0
-454 -474 0
-455 -475 0
-466 -481 0
-467 -482 0
-468 -483 0
-469 -484 0
-470 -485 0
-466 -486 0
-467 -487 0
-468 -488 0
-469 -489 0
-470 -490 0
-476 -481 0
-477 -482 0
-478 -483 0
-479 -484 0
-480 -485 0
-486 -496 0
-487 -497 0
-488 -498 0
-489 -499 0
-490 -500 0
-1 -36 0
-2 -37 0
-3 -38 0
-4 -39 0
-5 -40 0
-1 -131 0
-2 -132 0
-3 -133 0
-4 -134 0
-5 -135 0
-1 -161 0
-2 -162 0
-3 -163 0
-4 -164 0
-5 -165 0
-1 -321 0
-2 -322 0
-3 -323 0
-4 -324 0
-5 -325 0
-1 -401 0
-2 -402 0
-3 -403 0
-4 -404 0
-5 -405 0
-1 -451 0
-2 -452 0
-3 -453 0
-4 -454 0
-5 -455 0
-6 -51 0
-7 -52 0
-8 -53 0
-9 -54 0
-10 -55 0
-6 -56 0
-7 -57 0
-8 -58 0
-9 -59 0
-10 -60 0
-6 -276 0
-7 -277 0
-8 -278 0
-9 -279 0
-10 -280 0
-6 -296 0
-7 -297 0
-8 -298 0
-9 -299 0
-10 -300 0
-6 -306 0
-7 -307 0
-8 -308 0
-9 -309 0
-10 -310 0
-6 -336 0
-7 -337 0
-8 -338 0
-9 -339 0
-10 -340 0
-6 -431 0
-7 -432 0
-8 -433 0
-9 -434 0
-10 -435 0
-6 -436 0
-7 -437 0
-8 -438 0
-9 -439 0
-10 -440 0
-6 -481 0
-7 -482 0
-8 -483 0
-9 -484 0
-10 -485 0
-11 -36 0
-12 -37 0
-13 -38 0
-14 -39 0
-15 -40 0
-11 -51 0
-12 -52 0
-13 -53 0
-14 -54 0
-15 -55 0
-11 -86 0
-12 -87 0
-13 -88 0
-14 -89 0
-15 -90 0
-11 -191 0
-12 -192 0
-13 -193 0
-14 -194 0
-15 -195 0
-11 -221 0
-12 -222 0
-13 -223 0
-14 -224 0
-15 -225 0
-11 -286 0
-12 -287 0
-13 -288 0
-14 -289 0
-15 -290 0
-11 -296 0
-12 -297 0
-13 -298 0
-14 -299 0
-15 -300 0
-11 -306 0
-12 -307 0
-13 -308 0
-14 -309 0
-15 -310 0
-11 -341 0
-12 -342 0
-13 -343 0
-14 -344 0
-15 -345 0
-11 -431 0
-12 -432 0
-13 -433 0
-14 -434 0
-15 -435 0
-11 -446 0
-12 -447 0
-13 -448 0
-14 -449 0
-15 -450 0
-16 -161 0
-17 -162 0
-18 -163 0
-19 -164 0
-20 -165 0
-16 -241 0
-17 -242 0
-18 -243 0
-19 -244 0
-20 -245 0
-16 -256 0
-17 -257 0
-18 -258 0
-19 -259 0
-20 -260 0
-16 -281 0
-17 -282 0
-18 -283 0
-19 -284 0
-20 -285 0
-16 -326 0
-17 -327 0
-18 -328 0
-19 -329 0
-20 -330 0
-16 -356 0
-17 -357 0
-18 -358 0
-19 -359 0
-20 -360 0
-16 -451 0
-17 -452 0
-18 -453 0
-19 -454 0
-20 -455 0
-16 -486 0
-17 -487 0
-18 -488 0
-19 -489 0
-20 -490 0
-21 -56 0
-22 -57 0
-23 -58 0
-24 -59 0
-25 -60 0
-21 -121 0
-22 -122 0
-23 -123 0
-24 -124 0
-25 -125 0
-21 -191 0
-22 -192 0
-23 -193 0
-24 -194 0
-25 -195 0
-21 -201 0
-22 -202 0
-23 -203 0
-24 -204 0
-25 -205 0
-21 -276 0
-22 -277 0
-23 -278 0
-24 -279 0
-25 -280 0
-21 -346 0
-22 -347 0
-23 -348 0
-24 -349 0
-25 -350 0
-21 -371 0
-22 -372 0
-23 -373 0
-24 -374 0
-25 -375 0
-21 -401 0
-22 -402 0
-23 -403 0
-24 -404 0
-25 -405 0
-21 -436 0
-22 -437 0
-23 -438 0
-24 -439 0
-25 -440 0
-26 -66 0
-27 -67 0
-28 -68 0
-29 -69 0
-30 -70 0
-26 -71 0
-27 -72 0
-28 -73 0
-29 -74 0
-30 -75 0
-26 -111 0
-27 -112 0
-28 -113 0
-29 -114 0
-30 -115 0
-26 -156 0
-27 -157 0
-28 -158 0
-29 -159 0
-30 -160 0
-26 -181 0
-27 -182 0
-28 -183 0
-29 -184 0
-30 -185 0
-26 -201 0
-27 -202 0
-28 -203 0
-29 -204 0
-30 -205 0
-26 -226 0
-27 -227 0
-28 -228 0
-29 -229 0
-30 -230 0
-26 -401 0
-27 -402 0
-28 -403 0
-29 -404 0
-30 -405 0
-26 -421 0
-27 -422 0
-28 -423 0
-29 -424 0
-30 -425 0
-26 -441 0
-27 -442 0
-28 -443 0
-29 -444 0
-30 -445 0
-26 -481 0
-27 -482 0
-28 -483 0
-29 -484 0
-30 -485 0
-31 -211 0
-32 -212 0
-33 -213 0
-34 -214 0
-35 -215 0
-31 -496 0
-32 -497 0
-33 -498 0
-34 -499 0
-35 -500 0
-36 -91 0
-37 -92 0
-38 -93 0
-39 -94 0
-40 -95 0
-36 -101 0
-37 -102 0
-38 -103 0
-39 -104 0
-40 -105 0
-36 -181 0
-37 -182 0
-38 -183 0
-39 -184 0
-40 -185 0
-36 -231 0
-37 -232 0
-38 -233 0
-39 -234 0
-40 -235 0
-36 -236 0
-37 -237 0
-38 -238 0
-39 -239 0
-40 -240 0
-36 -301 0
-37 -302 0
-38 -303 0
-39 -304 0
-40 -305 0
-36 -321 0
-37 -322 0
-38 -323 0
-39 -324 0
-40 -325 0
-36 -391 0
-37 -392 0
-38 -393 0
-39 -394 0
-40 -395 0
-36 -401 0
-37 -402 0
-38 -403 0
-39 -404 0
-40 -405 0
-36 -456 0
-37 -457 0
-38 -458 0
-39 -459 0
-40 -460 0
-41 -121 0
-42 -122 0
-43 -123 0
-44 -124 0
-45 -125 0
-41 -131 0
-42 -132 0
-43 -133 0
-44 -134 0
-45 -135 0
-41 -171 0
-42 -172 0
-43 -173 0
-44 -174 0
-45 -175 0
-41 -211 0
-42 -212 0
-43 -213 0
-44 -214 0
-45 -215 0
-41 -226 0
-42 -227 0
-43 -228 0
-44 -229 0
-45 -230 0
-41 -286 0
-42 -287 0
-43 -288 0
-44 -289 0
-45 -290 0
-41 -291 0
-42 -292 0
-43 -293 0
-44 -294 0
-45 -295 0
-41 -326 0
-42 -327 0
-43 -328 0
-44 -329 0
-45 -330 0
-41 -396 0
-42 -397 0
-43 -398 0
-44 -399 0
-45 -400 0
-41 -436 0
-42 -437 0
-43 -438 0
-44 -439 0
-45 -440 0
-41 -441 0
-42 -442 0
-43 -443 0
-44 -444 0
-45 -445 0
-41 -471 0
-42 -472 0
-43 -473 0
-44 -474 0
-45 -475 0
-46 -111 0
-47 -112 0
-48 -113 0
-49 -114 0
-50 -115 0
-46 -181 0
-47 -182 0
-48 -183 0
-49 -184 0
-50 -185 0
-46 -271 0
-47 -272 0
-48 -273 0
-49 -274 0
-50 -275 0
-46 -301 0
-47 -302 0
-48 -303 0
-49 -304 0
-50 -305 0
-46 -361 0
-47 -362 0
-48 -363 0
-49 -364 0
-50 -365 0
-51 -166 0
-52 -167 0
-53 -168 0
-54 -169 0
-55 -170 0
-56 -141 0
-57 -142 0
-58 -143 0
-59 -144 0
-60 -145 0
-56 -296 0
-57 -297 0
-58 -298 0
-59 -299 0
-60 -300 0
-56 -326 0
-57 -327 0
-58 -328 0
-59 -329 0
-60 -330 0
-56 -356 0
-57 -357 0
-58 -358 0
-59 -359 0
-60 -360 0
-56 -361 0
-57 -362 0
-58 -363 0
-59 -364 0
-60 -365 0
-61 -111 0
-62 -112 0
-63 -113 0
-64 -114 0
-65 -115 0
-61 -351 0
-62 -352 0
-63 -353 0
-64 -354 0
-65 -355 0
-61 -441 0
-62 -442 0
-63 -443 0
-64 -444 0
-65 -445 0
-61 -456 0
-62 -457 0
-63 -458 0
-64 -459 0
-65 -460 0
-66 -96 0
-67 -97 0
-68 -98 0
-69 -99 0
-70 -100 0
-66 -111 0
-67 -112 0
-68 -113 0
-69 -114 0
-70 -115 0
-66 -116 0
-67 -117 0
-68 -118 0
-69 -119 0
-70 -120 0
-66 -181 0
-67 -182 0
-68 -183 0
-69 -184 0
-70 -185 0
-66 -331 0
-67 -332 0
-68 -333 0
-69 -334 0
-70 -335 0
-66 -376 0
-67 -377 0
-68 -378 0
-69 -379 0
-70 -380 0
-66 -461 0
-67 -462 0
-68 -463 0
-69 -464 0
-70 -465 0
-71 -191 0
-72 -192 0
-73 -193 0
-74 -194 0
-75 -195 0
-71 -231 0
-72 -232 0
-73 -233 0
-74 -234 0
-75 -235 0
-71 -266 0
-72 -267 0
-73 -268 0
-74 -269 0
-75 -270 0
-71 -306 0
-72 -307 0
-73 -308 0
-74 -309 0
-75 -310 0
-71 -316 0
-72 -317 0
-73 -318 0
-74 -319 0
-75 -320 0
-71 -336 0
-72 -337 0
-73 -338 0
-74 -339 0
-75 -340 0
-71 -401 0
-72 -402 0
-73 -403 0
-74 -404 0
-75 -405 0
-71 -441 0
-72 -442 0
-73 -443 0
-74 -444 0
-75 -445 0
-76 -121 0
-77 -122 0
-78 -123 0
-79 -124 0
-80 -125 0
-76 -176 0
-77 -177 0
-78 -178 0
-79 -179 0
-80 -180 0
-76 -286 0
-77 -287 0
-78 -288 0
-79 -289 0
-80 -290 0
-76 -421 0
-77 -422 0
-78 -423 0
-79 -424 0
-80 -425 0
-81 -121 0
-82 -122 0
-83 -123 0
-84 -124 0
-85 -125 0
-81 -251 0
-82 -252 0
-83 -253 0
-84 -254 0
-85 -255 0
-81 -321 0
-82 -322 0
-83 -323 0
-84 -324 0
-85 -325 0
-81 -421 0
-82 -422 0
-83 -423 0
-84 -424 0
-85 -425 0
-81 -451 0
-82 -452 0
-83 -453 0
-84 -454 0
-85 -455 0
-81 -456 0
-82 -457 0
-83 -458 0
-84 -459 0
-85 -460 0
-86 -131 0
-87 -132 0
-88 -133 0
-89 -134 0
-90 -135 0
-86 -146 0
-87 -147 0
-88 -148 0
-89 -149 0
-90 -150 0
-86 -296 0
-87 -297 0
-88 -298 0
-89 -299 0
-90 -300 0
-91 -121 0
-92 -122 0
-93 -123 0
-94 -124 0
-95 -125 0
-91 -251 0
-92 -252 0
-93 -253 0
-94 -254 0
-95 -255 0
-91 -281 0
-92 -282 0
-93 -283 0
-94 -284 0
-95 -285 0
-91 -291 0
-92 -292 0
-93 -293 0
-94 -294 0
-95 -295 0
-91 -481 0
-92 -482 0
-93 -483 0
-94 -484 0
-95 -485 0
-96 -226 0
-97 -227 0
-98 -228 0
-99 -229 0
-100 -230 0
-96 -256 0
-97 -257 0
-98 -258 0
-99 -259 0
-100 -260 0
-96 -286 0
-97 -287 0
-98 -288 0
-99 -289 0
-100 -290 0
-96 -401 0
-97 -402 0
-98 -403 0
-99 -404 0
-100 -405 0
-96 -436 0
-97 -437 0
-98 -438 0
-99 -439 0
-100 -440 0
-96 -441 0
-97 -442 0
-98 -443 0
-99 -444 0
-100 -445 0
-101 -296 0
-102 -297 0
-103 -298 0
-104 -299 0
-105 -300 0
-101 -371 0
-102 -372 0
-103 -373 0
-104 -374 0
-105 -375 0
-101 -476 0
-102 -477 0
-103 -478 0
-104 -479 0
-105 -480 0
-101 -491 0
-102 -492 0
-103 -493 0
-104 -494 0
-105 -495 0
-106 -146 0
-107 -147 0
-108 -148 0
-109 -149 0
-110 -150 0
-111 -166 0
-112 -167 0
-113 -168 0
-114 -169 0
-115 -170 0
-111 -206 0
-112 -207 0
-113 -208 0
-114 -209 0
-115 -210 0
-111 -226 0
-112 -227 0
-113 -228 0
-114 -229 0
-115 -230 0
-111 -316 0
-112 -317 0
-113 -318 0
-114 -319 0
-115 -320 0
-111 -321 0
-112 -322 0
-113 -323 0
-114 -324 0
-115 -325 0
-111 -381 0
-112 -382 0
-113 -383 0
-114 -384 0
-115 -385 0
-111 -401 0
-112 -402 0
-113 -403 0
-114 -404 0
-115 -405 0
-116 -156 0
-117 -157 0
-118 -158 0
-119 -159 0
-120 -160 0
-116 -161 0
-117 -162 0
-118 -163 0
-119 -164 0
-120 -165 0
-116 -176 0
-117 -177 0
-118 -178 0
-119 -179 0
-120 -180 0
-116 -201 0
-117 -202 0
-118 -203 0
-119 -204 0
-120 -205 0
-116 -231 0
-117 -232 0
-118 -233 0
-119 -234 0
-120 -235 0
-116 -256 0
-117 -257 0
-118 -258 0
-119 -259 0
-120 -260 0
-116 -306 0
-117 -307 0
-118 -308 0
-119 -309 0
-120 -310 0
-116 -386 0
-117 -387 0
-118 -388 0
-119 -389 0
-120 -390 0
-116 -441 0
-117 -442 0
-118 -443 0
-119 -444 0
-120 -445 0
-116 -496 0
-117 -497 0
-118 -498 0
-119 -499 0
-120 -500 0
-121 -206 0
-122 -207 0
-123 -208 0
-124 -209 0
-125 -210 0
-121 -226 0
-122 -227 0
-123 -228 0
-124 -229 0
-125 -230 0
-121 -316 0
-122 -317 0
-123 -318 0
-124 -319 0
-125 -320 0
-121 -411 0
-122 -412 0
-123 -413 0
-124 -414 0
-125 -415 0
-121 -451 0
-122 -452 0
-123 -453 0
-124 -454 0
-125 -455 0
-126 -326 0
-127 -327 0
-128 -328 0
-129 -329 0
-130 -330 0
-126 -346 0
-127 -347 0
-128 -348 0
-129 -349 0
-130 -350 0
-126 -401 0
-127 -402 0
-128 -403 0
-129 -404 0
-130 -405 0
-131 -311 0
-132 -312 0
-133 -313 0
-134 -314 0
-135 -315 0
-131 -391 0
-132 -392 0
-133 -393 0
-134 -394 0
-135 -395 0
-131 -481 0
-132 -482 0
-133 -483 0
-134 -484 0
-135 -485 0
-131 -496 0
-132 -497 0
-133 -498 0
-134 -499 0
-135 -500 0
-136 -171 0
-137 -172 0
-138 -173 0
-139 -174 0
-140 -175 0
-136 -211 0
-137 -212 0
-138 -213 0
-139 -214 0
-140 -215 0
-136 -376 0
-137 -377 0
-138 -378 0
-139 -379 0
-140 -380 0
-136 -406 0
-137 -407 0
-138 -408 0
-139 -409 0
-140 -410 0
-136 -491 0
-137 -492 0
-138 -493 0
-139 -494 0
-140 -495 0
-141 -206 0
-142 -207 0
-143 -208 0
-144 -209 0
-145 -210 0
-141 -381 0
-142 -382 0
-143 -383 0
-144 -384 0
-145 -385 0
-141 -436 0
-142 -437 0
-143 -438 0
-144 -439 0
-145 -440 0
-141 -491 0
-142 -492 0
-143 -493 0
-144 -494 0
-145 -495 0
-146 -171 0
-147 -172 0
-148 -173 0
-149 -174 0
-150 -175 0
-146 -176 0
-147 -177 0
-148 -178 0
-149 -179 0
-150 -180 0
-146 -206 0
-147 -207 0
-148 -208 0
-149 -209 0
-150 -210 0
-146 -256 0
-147 -257 0
-148 -258 0
-149 -259 0
-150 -260 0
-146 -276 0
-147 -277 0
-148 -278 0
-149 -279 0
-150 -280 0
-146 -396 0
-147 -397 0
-148 -398 0
-149 -399 0
-150 -400 0
-146 -431 0
-147 -432 0
-148 -433 0
-149 -434 0
-150 -435 0
-146 -456 0
-147 -457 0
-148 -458 0
-149 -459 0
-150 -460 0
-146 -476 0
-147 -477 0
-148 -478 0
-149 -479 0
-150 -480 0
-146 -481 0
-147 -482 0
-148 -483 0
-149 -484 0
-150 -485 0
-146 -496 0
-147 -497 0
-148 -498 0
-149 -499 0
-150 -500 0
-151 -191 0
-152 -192 0
-153 -193 0
-154 -194 0
-155 -195 0
-151 -346 0
-152 -347 0
-153 -348 0
-154 -349 0
-155 -350 0
-151 -366 0
-152 -367 0
-153 -368 0
-154 -369 0
-155 -370 0
-151 -401 0
-152 -402 0
-153 -403 0
-154 -404 0
-155 -405 0
-151 -481 0
-152 -482 0
-153 -483 0
-154 -484 0
-155 -485 0
-156 -196 0
-157 -197 0
-158 -198 0
-159 -199 0
-160 -200 0
-156 -286 0
-157 -287 0
-158 -288 0
-159 -289 0
-160 -290 0
-161 -256 0
-162 -257 0
-163 -258 0
-164 -259 0
-165 -260 0
-161 -276 0
-162 -277 0
-163 -278 0
-164 -279 0
-165 -280 0
-161 -291 0
-162 -292 0
-163 -293 0
-164 -294 0
-165 -295 0
-161 -301 0
-162 -302 0
-163 -303 0
-164 -304 0
-165 -305 0
-161 -356 0
-162 -357 0
-163 -358 0
-164 -359 0
-165 -360 0
-161 -401 0
-162 -402 0
-163 -403 0
-164 -404 0
-165 -405 0
-161 -441 0
-162 -442 0
-163 -443 0
-164 -444 0
-165 -445 0
-161 -446 0
-162 -447 0
-163 -448 0
-164 -449 0
-165 -450 0
-161 -476 0
-162 -477 0
-163 -478 0
-164 -479 0
-165 -480 0
-161 -481 0
-162 -482 0
-163 -483 0
-164 -484 0
-165 -485 0
-166 -236 0
-167 -237 0
-168 -238 0
-169 -239 0
-170 -240 0
-166 -241 0
-167 -242 0
-168 -243 0
-169 -244 0
-170 -245 0
-166 -261 0
-167 -262 0
-168 -263 0
-169 -264 0
-170 -265 0
-166 -301 0
-167 -302 0
-168 -303 0
-169 -304 0
-170 -305 0
-166 -311 0
-167 -312 0
-168 -313 0
-169 -314 0
-170 -315 0
-166 -336 0
-167 -337 0
-168 -338 0
-169 -339 0
-170 -340 0
-166 -406 0
-167 -407 0
-168 -408 0
-169 -409 0
-170 -410 0
-166 -411 0
-167 -412 0
-168 -413 0
-169 -414 0
-170 -415 0
-166 -476 0
-167 -477 0
-168 -478 0
-169 -479 0
-170 -480 0
-166 -486 0
-167 -487 0
-168 -488 0
-169 -489 0
-170 -490 0
-171 -221 0
-172 -222 0
-173 -223 0
-174 -224 0
-175 -225 0
-171 -401 0
-172 -402 0
-173 -403 0
-174 -404 0
-175 -405 0
-171 -471 0
-172 -472 0
-173 -473 0
-174 -474 0
-175 -475 0
-176 -206 0
-177 -207 0
-178 -208 0
-179 -209 0
-180 -210 0
-181 -271 0
-182 -272 0
-183 -273 0
-184 -274 0
-185 -275 0
-181 -281 0
-182 -282 0
-183 -283 0
-184 -284 0
-185 -285 0
-181 -291 0
-182 -292 0
-183 -293 0
-184 -294 0
-185 -295 0
-181 -321 0
-182 -322 0
-183 -323 0
-184 -324 0
-185 -325 0
-181 -326 0
-182 -327 0
-183 -328 0
-184 -329 0
-185 -330 0
-181 -366 0
-182 -367 0
-183 -368 0
-184 -369 0
-185 -370 0
-181 -391 0
-182 -392 0
-183 -393 0
-184 -394 0
-185 -395 0
-181 -451 0
-182 -452 0
-183 -453 0
-184 -454 0
-185 -455 0
-186 -276 0
-187 -277 0
-188 -278 0
-189 -279 0
-190 -280 0
-186 -321 0
-187 -322 0
-188 -323 0
-189 -324 0
-190 -325 0
-186 -346 0
-187 -347 0
-188 -348 0
-189 -349 0
-190 -350 0
-186 -356 0
-187 -357 0
-188 -358 0
-189 -359 0
-190 -360 0
-186 -371 0
-187 -372 0
-188 -373 0
-189 -374 0
-190 -375 0
-186 -401 0
-187 -402 0
-188 -403 0
-189 -404 0
-190 -405 0
-186 -406 0
-187 -407 0
-188 -408 0
-189 -409 0
-190 -410 0
-186 -431 0
-187 -432 0
-188 -433 0
-189 -434 0
-190 -435 0
-186 -451 0
-187 -452 0
-188 -453 0
-189 -454 0
-190 -455 0
-191 -221 0
-192 -222 0
-193 -223 0
-194 -224 0
-195 -225 0
-191 -226 0
-192 -227 0
-193 -228 0
-194 -229 0
-195 -230 0
-191 -296 0
-192 -297 0
-193 -298 0
-194 -299 0
-195 -300 0
-191 -301 0
-192 -302 0
-193 -303 0
-194 -304 0
-195 -305 0
-191 -381 0
-192 -382 0
-193 -383 0
-194 -384 0
-195 -385 0
-196 -256 0
-197 -257 0
-198 -258 0
-199 -259 0
-200 -260 0
-196 -266 0
-197 -267 0
-198 -268 0
-199 -269 0
-200 -270 0
-196 -311 0
-197 -312 0
-198 -313 0
-199 -314 0
-200 -315 0
-196 -376 0
-197 -377 0
-198 -378 0
-199 -379 0
-200 -380 0
-196 -406 0
-197 -407 0
-198 -408 0
-199 -409 0
-200 -410 0
-196 -426 0
-197 -427 0
-198 -428 0
-199 -429 0
-200 -430 0
-196 -496 0
-197 -497 0
-198 -498 0
-199 -499 0
-200 -500 0
-201 -446 0
-202 -447 0
-203 -448 0
-204 -449 0
-205 -450 0
-201 -466 0
-202 -467 0
-203 -468 0
-204 -469 0
-205 -470 0
-206 -271 0
-207 -272 0
-208 -273 0
-209 -274 0
-210 -275 0
-206 -331 0
-207 -332 0
-208 -333 0
-209 -334 0
-210 -335 0
-206 -346 0
-207 -347 0
-208 -348 0
-209 -349 0
-210 -350 0
-206 -366 0
-207 -367 0
-208 -368 0
-209 -369 0
-210 -370 0
-206 -386 0
-207 -387 0
-208 -388 0
-209 -389 0
-210 -390 0
-206 -441 0
-207 -442 0
-208 -443 0
-209 -444 0
-210 -445 0
-206 -456 0
-207 -457 0
-208 -458 0
-209 -459 0
-210 -460 0
-206 -461 0
-207 -462 0
-208 -463 0
-209 -464 0
-210 -465 0
-211 -286 0
-212 -287 0
-213 -288 0
-214 -289 0
-215 -290 0
-211 -346 0
-212 -347 0
-213 -348 0
-214 -349 0
-215 -350 0
-211 -361 0
-212 -362 0
-213 -363 0
-214 -364 0
-215 -365 0
-211 -396 0
-212 -397 0
-213 -398 0
-214 -399 0
-215 -400 0
-211 -466 0
-212 -467 0
-213 -468 0
-214 -469 0
-215 -470 0
-211 -471 0
-212 -472 0
-213 -473 0
-214 -474 0
-215 -475 0
-211 -476 0
-212 -477 0
-213 -478 0
-214 -479 0
-215 -480 0
-216 -251 0
-217 -252 0
-218 -253 0
-219 -254 0
-220 -255 0
-216 -261 0
-217 -262 0
-218 -263 0
-219 -264 0
-220 -265 0
-216 -316 0
-217 -317 0
-218 -318 0
-219 -319 0
-220 -320 0
-221 -306 0
-222 -307 0
-223 -308 0
-224 -309 0
-225 -310 0
-221 -316 0
-222 -317 0
-223 -318 0
-224 -319 0
-225 -320 0
-221 -336 0
-222 -337 0
-223 -338 0
-224 -339 0
-225 -340 0
-226 -431 0
-227 -432 0
-228 -433 0
-229 -434 0
-230 -435 0
-226 -441 0
-227 -442 0
-228 -443 0
-229 -444 0
-230 -445 0
-226 -451 0
-227 -452 0
-228 -453 0
-229 -454 0
-230 -455 0
-231 -326 0
-232 -327 0
-233 -328 0
-234 -329 0
-235 -330 0
-236 -331 0
-237 -332 0
-238 -333 0
-239 -334 0
-240 -335 0
-236 -346 0
-237 -347 0
-238 -348 0
-239 -349 0
-240 -350 0
-236 -381 0
-237 -382 0
-238 -383 0
-239 -384 0
-240 -385 0
-236 -496 0
-237 -497 0
-238 -498 0
-239 -499 0
-240 -500 0
-241 -281 0
-242 -282 0
-243 -283 0
-244 -284 0
-245 -285 0
-241 -411 0
-242 -412 0
-243 -413 0
-244 -414 0
-245 -415 0
-246 -326 0
-247 -327 0
-248 -328 0
-249 -329 0
-250 -330 0
-246 -366 0
-247 -367 0
-248 -368 0
-249 -369 0
-250 -370 0
-246 -391 0
-247 -392 0
-248 -393 0
-249 -394 0
-250 -395 0
-246 -431 0
-247 -432 0
-248 -433 0
-249 -434 0
-250 -435 0
-251 -321 0
-252 -322 0
-253 -323 0
-254 -324 0
-255 -325 0
-251 -361 0
-252 -362 0
-253 -363 0
-254 -364 0
-255 -365 0
-256 -311 0
-257 -312 0
-258 -313 0
-259 -314 0
-260 -315 0
-256 -366 0
-257 -367 0
-258 -368 0
-259 -369 0
-260 -370 0
-256 -371 0
-257 -372 0
-258 -373 0
-259 -374 0
-260 -375 0
-256 -416 0
-257 -417 0
-258 -418 0
-259 -419 0
-260 -420 0
-261 -401 0
-262 -402 0
-263 -403 0
-264 -404 0
-265 -405 0
-261 -431 0
-262 -432 0
-263 -433 0
-264 -434 0
-265 -435 0
-261 -466 0
-262 -467 0
-263 -468 0
-264 -469 0
-265 -470 0
-266 -346 0
-267 -347 0
-268 -348 0
-269 -349 0
-270 -350 0
-266 -416 0
-267 -417 0
-268 -418 0
-269 -419 0
-270 -420 0
-266 -471 0
-267 -472 0
-268 -473 0
-269 -474 0
-270 -475 0
-271 -301 0
-272 -302 0
-273 -303 0
-274 -304 0
-275 -305 0
-271 -376 0
-272 -377 0
-273 -378 0
-274 -379 0
-275 -380 0
-271 -396 0
-272 -397 0
-273 -398 0
-274 -399 0
-275 -400 0
-271 -401 0
-272 -402 0
-273 -403 0
-274 -404 0
-275 -405 0
-271 -411 0
-272 -412 0
-273 -413 0
-274 -414 0
-275 -415 0
-271 -456 0
-272 -457 0
-273 -458 0
-274 -459 0
-275 -460 0
-276 -386 0
-277 -387 0
-278 -388 0
-279 -389 0
-280 -390 0
-276 -476 0
-277 -477 0
-278 -478 0
-279 -479 0
-280 -480 0
-281 -361 0
-282 -362 0
-283 -363 0
-284 -364 0
-285 -365 0
-281 -391 0
-282 -392 0
-283 -393 0
-284 -394 0
-285 -395 0
-281 -411 0
-282 -412 0
-283 -413 0
-284 -414 0
-285 -415 0
-286 -381 0
-287 -382 0
-288 -383 0
-289 -384 0
-290 -385 0
-291 -366 0
-292 -367 0
-293 -368 0
-294 -369 0
-295 -370 0
-291 -471 0
-292 -472 0
-293 -473 0
-294 -474 0
-295 -475 0
-296 -456 0
-297 -457 0
-298 -458 0
-299 -459 0
-300 -460 0
-296 -481 0
-297 -482 0
-298 -483 0
-299 -484 0
-300 -485 0
-306 -371 0
-307 -372 0
-308 -373 0
-309 -374 0
-310 -375 0
-306 -396 0
-307 -397 0
-308 -398 0
-309 -399 0
-310 -400 0
-306 -421 0
-307 -422 0
-308 -423 0
-309 -424 0
-310 -425 0
-306 -486 0
-307 -487 0
-308 -488 0
-309 -489 0
-310 -490 0
-311 -381 0
-312 -382 0
-313 -383 0
-314 -384 0
-315 -385 0
-311 -401 0
-312 -402 0
-313 -403 0
-314 -404 0
-315 -405 0
-311 -416 0
-312 -417 0
-313 -418 0
-314 -419 0
-315 -420 0
-311 -456 0
-312 -457 0
-313 -458 0
-314 -459 0
-315 -460 0
-316 -341 0
-317 -342 0
-318 -343 0
-319 -344 0
-320 -345 0
-316 -361 0
-317 -362 0
-318 -363 0
-319 -364 0
-320 -365 0
-316 -421 0
-317 -422 0
-318 -423 0
-319 -424 0
-320 -425 0
-321 -361 0
-322 -362 0
-323 -363 0
-324 -364 0
-325 -365 0
-321 -376 0
-322 -377 0
-323 -378 0
-324 -379 0
-325 -380 0
-321 -446 0
-322 -447 0
-323 -448 0
-324 -449 0
-325 -450 0
-326 -416 0
-327 -417 0
-328 -418 0
-329 -419 0
-330 -420 0
-331 -366 0
-332 -367 0
-333 -368 0
-334 -369 0
-335 -370 0
-331 -401 0
-332 -402 0
-333 -403 0
-334 -404 0
-335 -405 0
-331 -416 0
-332 -417 0
-333 -418 0
-334 -419 0
-335 -420 0
-336 -381 0
-337 -382 0
-338 -383 0
-339 -384 0
-340 -385 0
-336 -391 0
-337 -392 0
-338 -393 0
-339 -394 0
-340 -395 0
-341 -396 0
-342 -397 0
-343 -398 0
-344 -399 0
-345 -400 0
-346 -391 0
-347 -392 0
-348 -393 0
-349 -394 0
-350 -395 0
-346 -471 0
-347 -472 0
-348 -473 0
-349 -474 0
-350 -475 0
-351 -431 0
-352 -432 0
-353 -433 0
-354 -434 0
-355 -435 0
-351 -451 0
-352 -452 0
-353 -453 0
-354 -454 0
-355 -455 0
-356 -391 0
-357 -392 0
-358 -393 0
-359 -394 0
-360 -395 0
-356 -411 0
-357 -412 0
-358 -413 0
-359 -414 0
-360 -415 0
-356 -436 0
-357 -437 0
-358 -438 0
-359 -439 0
-360 -440 0
-361 -396 0
-362 -397 0
-363 -398 0
-364 -399 0
-365 -400 0
-361 -411 0
-362 -412 0
-363 -413 0
-364 -414 0
-365 -415 0
-361 -456 0
-362 -457 0
-363 -458 0
-364 -459 0
-365 -460 0
-361 -466 0
-362 -467 0
-363 -468 0
-364 -469 0
-365 -470 0
-366 -471 0
-367 -472 0
-368 -473 0
-369 -474 0
-370 -475 0
-371 -421 0
-372 -422 0
-373 -423 0
-374 -424 0
-375 -425 0
-381 -461 0
-382 -462 0
-383 -463 0
-384 -464 0
-385 -465 0
-381 -466 0
-382 -467 0
-383 -468 0
-384 -469 0
-385 -470 0
-381 -471 0
-382 -472 0
-383 -473 0
-384 -474 0
-385 -475 0
-386 -416 0
-387 -417 0
-388 -418 0
-389 -419 0
-390 -420 0
-386 -421 0
-387 -422 0
-388 -423 0
-389 -424 0
-390 -425 0
-386 -441 0
-387 -442 0
-388 -443 0
-389 -444 0
-390 -445 0
-386 -451 0
-387 -452 0
-388 -453 0
-389 -454 0
-390 -455 0
-386 -476 0
-387 -477 0
-388 -478 0
-389 -479 0
-390 -480 0
-386 -486 0
-387 -487 0
-388 -488 0
-389 -489 0
-390 -490 0
-391 -446 0
-392 -447 0
-393 -448 0
-394 -449 0
-395 -450 0
-391 -486 0
-392 -487 0
-393 -488 0
-394 -489 0
-395 -490 0
-396 -441 0
-397 -442 0
-398 -443 0
-399 -444 0
-400 -445 0
-401 -436 0
-402 -437 0
-403 -438 0
-404 -439 0
-405 -440 0
-401 -476 0
-402 -477 0
-403 -478 0
-404 -479 0
-405 -480 0
-406 -431 0
-407 -432 0
-408 -433 0
-409 -434 0
-410 -435 0
-411 -476 0
-412 -477 0
-413 -478 0
-414 -479 0
-415 -480 0
-416 -441 0
-417 -442 0
-418 -443 0
-419 -444 0
-420 -445 0
-416 -451 0
-417 -452 0
-418 -453 0
-419 -454 0
-420 -455 0
-416 -481 0
-417 -482 0
-418 -483 0
-419 -484 0
-420 -485 0
-441 -496 0
-442 -497 0
-443 -498 0
-444 -499 0
-445 -500 0
-451 -481 0
-452 -482 0
-453 -483 0
-454 -484 0
-455 -485 0
-461 -496 0
-462 -497 0
-463 -498 0
-464 -499 0
-465 -500 0
-466 -496 0
-467 -497 0
-468 -498 0
-469 -499 0
-470 -500 0
